
Gurobi 11.0.1 (win64) logging started Tue May 14 18:25:31 2024

Set parameter LogFile to value "output/solver_log24.txt"
Gurobi Optimizer version 11.0.1 build v11.0.1rc0 (win64 - Windows 11.0 (22631.2))

CPU model: 11th Gen Intel(R) Core(TM) i7-1165G7 @ 2.80GHz, instruction set [SSE2|AVX|AVX2|AVX512]
Thread count: 4 physical cores, 8 logical processors, using up to 8 threads

Optimize a model with 1056 rows, 199 columns and 19780 nonzeros
Model fingerprint: 0x564a2f0f
Variable types: 88 continuous, 111 integer (111 binary)
Coefficient statistics:
  Matrix range     [4e-01, 1e+05]
  Objective range  [1e+00, 1e+02]
  Bounds range     [1e+00, 1e+00]
  RHS range        [1e-02, 1e+05]

User MIP start produced solution with objective 38085.5 (0.00s)
User MIP start produced solution with objective 39296.3 (0.00s)
Loaded user MIP start with objective 39296.3

Presolve removed 80 rows and 82 columns
Presolve time: 0.02s
Presolved: 976 rows, 117 columns, 19219 nonzeros
Variable types: 81 continuous, 36 integer (36 binary)

Root relaxation: objective 4.012864e+04, 246 iterations, 0.01 seconds (0.03 work units)

    Nodes    |    Current Node    |     Objective Bounds      |     Work
 Expl Unexpl |  Obj  Depth IntInf | Incumbent    BestBd   Gap | It/Node Time

     0     0 40128.6447    0    3 39296.3240 40128.6447  2.12%     -    0s
     0     0 39376.5935    0    2 39296.3240 39376.5935  0.20%     -    0s
     0     0          -    0      39296.3240 39299.9997  0.01%     -    0s

Cutting planes:
  Cover: 1
  MIR: 1
  Relax-and-lift: 1

Explored 1 nodes (359 simplex iterations) in 0.10 seconds (0.15 work units)
Thread count was 8 (of 8 available processors)

Solution count 3: 39296.3 39296.3 38085.5 

Optimal solution found (tolerance 1.00e-04)
Best objective 3.929632397969e+04, best bound 3.929999970804e+04, gap 0.0094%
